NAME : MM7_targets
COMMENT : Instance 7 in MD algorithm. Coordinates of targets and vhcl-target allocation given. Vehicle indeces start from 1.
TYPE : TSP
DIMENSION : 25
EDGE_WEIGHT_TYPE : ATT
NODE_COORD_SECTION
1 65.5741 48.9764 -
2 3.5712 44.5586 -
3 84.9129 64.6313 -
4 93.3993 70.9365 -
5 67.8735 75.4687 -
6 75.7740 27.6025 -
7 74.3132 67.9703 -
8 39.2227 65.5098 -
9 65.5478 16.2612 -
10 17.1187 11.8998 -
11 70.6046 49.8364 -
12 3.1833 95.9744 -
13 27.6923 34.0386 -
14 4.6171 58.5268 -
15 9.7132 22.3812 -
16 82.3458 75.1267 -
17 69.4829 25.5095 -
18 31.7099 50.5957 -
19 95.0222 69.9077 -
20 3.4446 89.0903 -
21 43.8744 95.9291 -
22 38.1558 54.7216 -
23 76.5517 13.8624 -
24 79.5200 14.9294 -
25 18.6873 25.7508 -
EOF
